Route #1: 26 17 51 6 68 2 33 73 1 62 74 30
Route #2: 4 45 29 5 47 36 69 71 60 70 20 37 15 57
Route #3: 48 21 61 28 22 64 42 43 41 56 23 63
Route #4: 16 49 24 3 44 32 50 18 55 25 9 12
Route #5: 40 39 72 58 31 10 38 65 11
Route #6: 53 66 59 14 19 54 13 27 52 34
Route #7: 67 7 35 8 46 75
Cost 752